3790216
63,43,44,45,163,10,75,159,192,124,184,93,165,5,145,157,189,98,17,215,81,211,224,213,226,31,161,70,97,88,67,32,141,175,12,13,113,28,9,137,49,136,59,210,193,194,110,119,29,4,20,115,116,74,39,214,19,62,37,76,114,147,123,83,199,200,94,158,2,144,219,7,173,138,18,95,132,168,169,170,108,185,11,218,217,122,127,128,216,129,150,15,197,153,109,133,46,202,179,105,104,181,60,92,91,140,65,53,52,221,186,102,103,212,58,57,56,166,203,229,84,69,180,24,196,220,120,151,42,206,209,86,0,143,191,195,107,61,101,100,87,223,8,80,204,178,3,148,30,162,117,96,54,222,64,142,23,130,55,48,176,72,121,190,139,134,156,35,82,126,177,22,125,25,160,26,27,182,34,73,38,154,6,50,68,188,174,187,51,79,1,131,167,208,78,207,198,99,40,41,112,225,118,135,164,205,85,172,171,201,149,227,89,152,90,36,33,183,146,66,71,228,111,77,47,16,155,21,106,14
